Instances/A/A-n32-k5.tsp
NAME : eil51
COMMENT : 51-city problem (Christofides/Eilon)
TYPE : TSP
DIMENSION : 32
EDGE_WEIGHT_TYPE : EUC_2D
NODE_COORD_SECTION
0 20
0 27
0 30
1 12
2 17
3 2
4 28
5 25
6 7
7 26
8 11
9 18
10 29
11 4
12 0
13 6
14 24
15 22
16 1
17 19
18 8
19 31
20 5
21 13
22 9
23 3
24 0
25 10
26 16
27 14
28 23
29 15
30 0
31 21
EOF
