Instances/A/A-n32-k5.sol
0 6
0 13
0 14
0 21
1 12
3 23
4 11
5 29
6 0
7 1
8 18
9 0
10 25
11 8
12 16
13 7
14 24
15 10
17 0
18 22
19 17
20 5
21 31
22 9
23 28
24 27
25 0
27 20
28 4
29 15
30 0
31 19
