Instances/A/A-n32-k5.tour
0 14
1 12
2 3
3 6
4 28
5 25
6 17
7 1
8 11
9 18
10 29
11 4
12 16
13 7
14 24
15 22
16 26
17 19
18 8
19 31
20 5
21 13
22 9
23 2
24 27
25 10
26 30
27 20
28 23
29 15
30 0
31 21
